30
1 0 5
2 0 8
2 1 6
3 2 7
5 0 2
5 1 8
5 2 6
5 4 8
6 1 6
6 2 3
6 3 6
6 4 4
6 5 4
7 0 6
7 1 4
7 2 4
7 3 9
7 4 3
7 5 1
7 6 11
8 0 11
8 1 1
8 2 9
8 4 5
9 0 2
9 1 6
9 2 4
9 5 9
9 7 5
9 8 1
10 0 6
10 3 9
10 4 8
10 5 6
10 6 1
10 7 9
10 8 10
11 1 3
11 6 7
11 8 11
11 9 7
12 1 5
12 2 11
12 4 3
12 5 3
12 6 3
12 11 5
13 0 11
13 1 10
13 5 5
13 8 11
13 9 10
13 10 7
14 0 1
14 1 8
14 3 2
14 4 1
14 5 1
14 6 6
14 8 8
14 9 4
14 11 7
14 13 10
15 0 2
15 2 4
15 4 5
15 5 5
15 8 11
15 12 5
15 13 5
16 0 1
16 1 4
16 2 5
16 3 5
16 6 8
16 8 8
16 9 5
16 10 1
16 11 1
16 12 5
16 14 5
17 0 2
17 1 11
17 4 7
17 9 8
17 10 1
17 14 7
17 15 6
17 16 8
18 0 3
18 2 2
18 4 2
18 5 4
18 8 7
18 12 2
18 15 8
18 16 10
18 17 3
19 0 1
19 1 4
19 2 1
19 3 2
19 4 6
19 5 4
19 10 10
19 15 4
19 16 7
20 1 11
20 2 11
20 3 3
20 4 5
20 5 1
20 6 10
20 8 5
20 12 3
20 14 5
20 15 6
20 16 9
21 0 2
21 6 3
21 8 7
21 11 2
21 13 6
21 15 7
21 16 4
21 17 2
21 18 1
21 20 10
22 0 1
22 2 6
22 3 3
22 4 1
22 5 2
22 7 2
22 8 10
22 9 3
22 10 10
22 11 1
22 12 3
22 13 2
22 20 10
22 21 2
23 1 2
23 2 4
23 5 8
23 6 6
23 7 3
23 10 5
23 11 9
23 12 10
23 16 6
23 21 5
24 2 11
24 3 5
24 5 10
24 7 1
24 8 10
24 11 2
24 14 9
24 17 7
24 19 7
24 20 3
24 21 3
24 22 11
25 0 1
25 1 10
25 3 6
25 5 7
25 6 5
25 7 1
25 10 2
25 13 6
25 16 4
25 19 9
25 20 9
25 21 10
25 22 1
26 2 1
26 3 6
26 5 2
26 8 3
26 11 3
26 14 4
26 18 9
26 20 3
26 23 7
27 1 6
27 5 2
27 6 5
27 7 8
27 8 9
27 9 7
27 12 3
27 13 4
27 15 1
27 17 1
27 18 7
27 19 9
27 20 2
27 21 4
27 24 7
27 26 10
28 3 2
28 4 11
28 7 8
28 13 2
28 15 8
28 20 6
28 21 11
29 2 1
29 3 10
29 4 11
29 9 10
29 10 7
29 14 1
29 15 1
29 16 5
29 18 11
29 19 4
29 25 3
29 26 4
29 27 5
